# Solution for model r5_t27_m4_4 Batch Number: 2
# Finished Task: 26 / 27
# Makespan: 583.0, Total Distance: 575.0, Total Time: 14.0011
# R O S F Batch
0 0 5 0.0 0.0 -1
1 1 29 0.0 0.0 -1
2 2 23 0.0 0.0 -1
3 3 8 0.0 0.0 -1
4 4 28 0.0 0.0 -1
5 0 12 204.0 230.0 0
6 4 -1 553.0 583.0 1
7 0 -1 530.0 553.0 1
8 3 24 80.0 100.0 0
9 -1 -1 -1.0 -1.0 1
10 4 19 371.0 403.0 1
11 3 18 403.0 439.0 1
12 0 21 330.0 354.0 0
13 3 25 282.0 303.0 0
14 1 -1 326.0 354.0 0
15 2 17 166.0 202.0 0
16 4 20 237.0 262.0 0
17 2 31 223.0 258.0 0
18 3 26 467.0 488.0 1
19 4 30 411.0 446.0 1
20 4 10 315.0 354.0 0
21 0 7 439.0 466.0 1
22 3 -1 552.0 583.0 1
23 2 15 122.0 150.0 0
24 3 13 100.0 124.0 0
25 3 11 327.0 354.0 0
26 3 22 503.0 539.0 1
27 4 16 191.0 226.0 0
28 4 27 108.0 143.0 0
29 1 14 30.0 52.0 0
30 4 6 466.0 498.0 1
31 2 -1 322.0 354.0 0
